
Gurobi 6.5.2 (win64) logging started 07/23/16 02:49:20


Gurobi 6.5.2 (win64) logging started 07/23/16 02:49:20

Optimize a model with 17987 rows, 1329 columns and 39459 nonzeros
Coefficient statistics:
  Matrix range    [4e-06, 1e+03]
  Objective range [1e+00, 1e+00]
  Bounds range    [1e+00, 1e+00]
  RHS range       [1e+00, 1e+03]
Found heuristic solution: objective 3.81389e+06
Presolve removed 17961 rows and 1303 columns
Presolve time: 0.01s
Presolved: 26 rows, 26 columns, 80 nonzeros
Variable types: 26 continuous, 0 integer (0 binary)

Root relaxation: objective 1.882061e+02, 18 iterations, 0.00 seconds

    Nodes    |    Current Node    |     Objective Bounds      |     Work
 Expl Unexpl |  Obj  Depth IntInf | Incumbent    BestBd   Gap | It/Node Time

*    0     0               0     188.2060753  188.20608  0.00%     -    0s

Explored 0 nodes (18 simplex iterations) in 0.01 seconds
Thread count was 8 (of 8 available processors)

Optimal solution found (tolerance 1.00e-04)
Best objective 1.882060752553e+02, best bound 1.882060752553e+02, gap 0.0%

Wrote requested result file 'H2\instance13\\Results13EC_Sol4.lp'

